
Gurobi 8.1.1 (win64) logging started 11/24/19 13:18:26

Changed value of parameter LogFile to logs/miss/ip/miss-07-30-2.log
   Prev: gurobi.log  Default: 
Changed value of parameter LogToConsole to 0
   Prev: 1  Min: 0  Max: 1  Default: 1
Changed value of parameter TimeLimit to 3600.0
   Prev: 1e+100  Min: 0.0  Max: 1e+100  Default: 1e+100
Optimize a model with 3178 rows, 1500 columns and 12103 nonzeros
Variable types: 0 continuous, 1500 integer (1485 binary)
Coefficient statistics:
  Matrix range     [1e+00, 5e+02]
  Objective range  [1e+00, 1e+00]
  Bounds range     [1e+00, 1e+00]
  RHS range        [1e+00, 6e+02]
Presolve removed 3 rows and 3 columns
Presolve time: 0.06s
Presolved: 3175 rows, 1497 columns, 12094 nonzeros
Variable types: 0 continuous, 1497 integer (1482 binary)

Root relaxation: objective 4.294118e+00, 748 iterations, 0.04 seconds

    Nodes    |    Current Node    |     Objective Bounds      |     Work
 Expl Unexpl |  Obj  Depth IntInf | Incumbent    BestBd   Gap | It/Node Time

     0     0    4.29412    0  138          -    4.29412      -     -    0s
H    0     0                      15.0000000    4.29412  71.4%     -    0s
     0     0    6.00000    0   38   15.00000    6.00000  60.0%     -    0s
     0     0    6.00000    0   41   15.00000    6.00000  60.0%     -    0s
     0     0    6.00000    0   39   15.00000    6.00000  60.0%     -    0s
     0     0    6.00000    0   21   15.00000    6.00000  60.0%     -    0s
     0     0    6.00000    0   20   15.00000    6.00000  60.0%     -    0s
     0     0    6.00000    0   38   15.00000    6.00000  60.0%     -    0s
     0     0    6.00000    0   37   15.00000    6.00000  60.0%     -    0s
     0     0    6.00000    0   11   15.00000    6.00000  60.0%     -    1s
     0     0    6.00000    0   27   15.00000    6.00000  60.0%     -    1s
     0     0    6.00000    0   26   15.00000    6.00000  60.0%     -    1s
     0     0    6.00000    0   18   15.00000    6.00000  60.0%     -    1s
     0     0    6.00000    0   18   15.00000    6.00000  60.0%     -    1s
     0     0    6.00000    0   62   15.00000    6.00000  60.0%     -    1s
     0     0    6.00000    0   52   15.00000    6.00000  60.0%     -    1s
     0     0    6.00000    0   52   15.00000    6.00000  60.0%     -    1s
     0     0    6.00000    0   17   15.00000    6.00000  60.0%     -    1s
     0     0    6.00000    0    7   15.00000    6.00000  60.0%     -    1s
     0     0    6.00000    0    7   15.00000    6.00000  60.0%     -    1s
     0     0    6.00000    0   12   15.00000    6.00000  60.0%     -    2s
     0     0    6.00000    0    8   15.00000    6.00000  60.0%     -    2s
     0     0    6.00000    0    6   15.00000    6.00000  60.0%     -    2s
     0     0    6.00000    0    8   15.00000    6.00000  60.0%     -    2s
     0     0    6.00000    0    9   15.00000    6.00000  60.0%     -    2s
     0     0    6.00000    0    9   15.00000    6.00000  60.0%     -    2s
     0     0    6.00000    0   13   15.00000    6.00000  60.0%     -    2s
     0     0    6.00000    0    8   15.00000    6.00000  60.0%     -    2s
     0     2    6.00000    0    8   15.00000    6.00000  60.0%     -    2s
   760   602    8.00000  160   18   15.00000    6.00000  60.0%  45.2    5s
H  764   574                      14.0000000    6.00000  57.1%  44.9    6s
H  766   546                      12.0000000    6.00000  50.0%  44.8    6s
H  773   524                      11.0000000    6.00000  45.5%  50.0    7s
H  801   516                      10.0000000    6.00000  40.0%  60.0    9s
   816   526    7.00000   75   24   10.00000    6.00000  40.0%  58.9   10s
H  816   499                       9.0000000    6.00000  33.3%  58.9   10s
 20891 12173    7.00000  142   17    9.00000    6.00000  33.3%  12.0   19s
 23488 13598    7.00000  110   22    9.00000    6.00000  33.3%  11.6   20s
H36913 11194                       8.0000000    6.00000  25.0%  10.5   22s
 39960 12623    6.00000   97   51    8.00000    6.00000  25.0%  10.4   25s
 41666 13429    6.00000   67   38    8.00000    6.00000  25.0%  10.5   30s
 61086 19569 infeasible  223         8.00000    6.00000  25.0%  10.8   35s
 89640 31316    7.00000  113   29    8.00000    6.00000  25.0%  10.4   40s
 112297 46214    6.30121  114   67    8.00000    6.00000  25.0%  10.2   45s
H122307  1033                       7.0000000    6.00000  14.3%  10.1   47s
 122335  1026    6.00000   79   18    7.00000    6.00000  14.3%  10.1   53s
 127812  2105    6.00000  130   31    7.00000    6.00000  14.3%  10.3   55s
 146334  3278    6.00000  121   19    7.00000    6.00000  14.3%  10.5   60s
 170330  3404    6.00000  124   19    7.00000    6.00000  14.3%  10.8   65s
 193729  3170    6.00000  148   29    7.00000    6.00000  14.3%  11.1   70s
 212591  2432 infeasible  132         7.00000    6.00000  14.3%  11.4   75s
 228625  2146 infeasible  137         7.00000    6.00000  14.3%  11.7   80s
 245199  2555 infeasible  163         7.00000    6.00000  14.3%  12.0   85s
 262237  5920    6.00000  170   23    7.00000    6.00000  14.3%  12.2   90s
 277028  7142 infeasible  168         7.00000    6.00000  14.3%  12.4   95s
 292193  7500    6.00000  164   28    7.00000    6.00000  14.3%  12.6  100s
 311990  7652 infeasible  176         7.00000    6.00000  14.3%  12.8  105s
 326065  7802 infeasible  150         7.00000    6.00000  14.3%  12.9  110s
 345838  7981 infeasible  139         7.00000    6.00000  14.3%  13.0  115s
 361572  7946 infeasible  168         7.00000    6.00000  14.3%  13.2  120s
 374403  7786 infeasible  191         7.00000    6.00000  14.3%  13.4  125s
 389923  8010 infeasible  145         7.00000    6.00000  14.3%  13.5  130s
 406949  8907 infeasible  106         7.00000    6.00000  14.3%  13.6  135s
 430200  8486    6.00000  142   28    7.00000    6.00000  14.3%  13.5  140s
 444266  8230    6.00000  131   40    7.00000    6.00000  14.3%  13.6  145s
 459182  7974 infeasible  150         7.00000    6.00000  14.3%  13.8  150s
 470035  7486 infeasible  140         7.00000    6.00000  14.3%  13.9  155s
 480236  7199 infeasible  140         7.00000    6.00000  14.3%  14.1  160s
 487448  6679 infeasible  158         7.00000    6.00000  14.3%  14.2  165s
 497569  6006 infeasible  173         7.00000    6.00000  14.3%  14.4  170s
 507724  5107 infeasible  149         7.00000    6.00000  14.3%  14.6  175s
 515880  4674    6.00000  148   40    7.00000    6.00000  14.3%  14.7  180s
 535838  5770 infeasible  161         7.00000    6.00000  14.3%  14.6  185s
 558505  5105 infeasible  147         7.00000    6.00000  14.3%  14.6  190s
 565985  4381 infeasible  129         7.00000    6.00000  14.3%  14.7  195s
 572962  3390    6.00000  159   29    7.00000    6.00000  14.3%  14.9  200s
 581489  2512 infeasible  135         7.00000    6.00000  14.3%  15.1  205s
 590717  1772 infeasible  132         7.00000    6.00000  14.3%  15.2  210s
 595657  1206 infeasible  114         7.00000    6.00000  14.3%  15.3  215s
 599804   540 infeasible  143         7.00000    6.00000  14.3%  15.5  220s
 604438    55    6.00000  128   76    7.00000    6.00000  14.3%  15.7  225s

Cutting planes:
  Inf proof: 4

Explored 604579 nodes (9542194 simplex iterations) in 225.84 seconds
Thread count was 4 (of 4 available processors)

Solution count 8: 7 8 9 ... 15

Optimal solution found (tolerance 1.00e-04)
Best objective 7.000000000000e+00, best bound 7.000000000000e+00, gap 0.0000%
